1 14 15 16 17 18 19 20 33 46 45 32 31 30 29 28 27 26 25 24 13 12 11 10 9 22 23 36 37 38 39 40 41 42 43 44 58 59 57 55 56 69 68 81 82 83 70 71 72 84 85 98 97 96 95 94 93 92 91 90 89 88 87 86 73 74 75 76 77 78 79 80 65 64 66 67 54 53 52 51 50 49 63 62 61 60 47 48 35 34 21 8 190 191 192 193 194 195 182 181 180 179 178 177 164 165 166 167 168 169 170 183 185 184 171 172 160 159 158 157 156 155 154 153 152 151 138 139 140 141 142 143 144 145 146 131 130 129 128 127 116 115 114 113 126 125 112 99 100 101 102 103 104 117 118 105 106 107 108 109 110 111 124 123 122 121 120 119 132 133 134 135 136 137 150 149 148 147 161 162 163 176 175 174 173 186 187 188 189 7 6 5 4 3 2
